param pop:=
1 40
2 30
3 35
4 20
5 15
6 50
7 45
8 60;

param travel:1 2 3 4 5 6 7 8:=
1 0 3 4 6 8 9 8 10
2 3 0 5 4 8 6 12 9
3 4 5 0 2 2 3 5 7
4 6 4 2 0 3 2 5 4
5 8 8 2 3 0 2 2 4
6 9 6 3 2 2 0 3 2
7 8 12 5 5 2 3 0 2
8 10 9 7 4 4 2 2 0;
